pymatgen with grid density = 606 / number of atoms
0
Gamma
6 6 3
