Cd2 S2
1.0
   2.1032677752807531   -3.6429666487086241    0.0000000000000000
   2.1032677752807531    3.6429666487086241    0.0000000000000000
   0.0000000000000000    0.0000000000000000    6.8429289999999998
Cd S
2 2
direct
   0.3333333333333333    0.6666666666666666    0.0001569999999997 Cd2+
   0.6666666666666667    0.3333333333333333    0.5001569999999997 Cd2+
   0.3333333333333333    0.6666666666666666    0.3768430000000000 S2-
   0.6666666666666667    0.3333333333333333    0.8768430000000000 S2-
